54346
11, 31, 25, 52, 2, 14, 9, 12, 18, 4, 30, 47, 54, 34, 53, 17, 48, 49, 19, 32, 41, 5, 35, 24, 8, 44, 38, 50, 20, 37, 7, 40, 51, 13, 43, 3, 6, 28, 55, 26, 23, 21, 29, 22, 10, 16, 15, 39, 46, 36, 1, 27, 33, 42, 45
